174
0 163 106 9 49 94 32 102 89 87 
103 158 64 46 5 170 86 104 153 151 
96 47 145 120 70 45 99 83 128 131 
171 141 39 143 33 54 3 61 41 55 
72 164 113 77 159 16 37 161 10 127 
84 78 51 60 13 133 156 122 107 23 
125 76 88 91 50 74 134 100 147 65 
6 17 4 26 169 67 152 135 29 92 
82 28 63 8 43 168 42 48 118 14 
35 59 148 80 119 79 25 2 24 139 
18 21 172 142 110 69 12 130 75 22 
66 150 27 90 73 124 162 1 166 30 
160 97 109 53 137 93 11 31 101 71 
173 112 149 157 98 36 68 38 114 129 
34 7 20 95 144 140 44 146 136 121 
52 165 167 81 40 56 155 19 123 138 
105 108 85 15 62 116 111 126 154 132 
58 115 57 117 
